(set-logic QF_UF)
(declare-fun A0 () Bool)
(declare-fun A1 () Bool)
(declare-fun A2 () Bool)
(declare-fun A3 () Bool)
(declare-fun A4 () Bool)
(declare-fun A5 () Bool)
(declare-fun A6 () Bool)
(declare-fun A7 () Bool)
(declare-fun A8 () Bool)
(declare-fun A9 () Bool)
(declare-fun A10 () Bool)
(declare-fun A11 () Bool)
(declare-fun A12 () Bool)
(declare-fun A13 () Bool)
(declare-fun A14 () Bool)
(declare-fun A16 () Bool)
(declare-fun A17 () Bool)
(declare-fun A18 () Bool)
(declare-fun A19 () Bool)
(declare-fun A20 () Bool)
(declare-fun A21 () Bool)
(declare-fun A22 () Bool)
(declare-fun A23 () Bool)
(declare-fun A24 () Bool)
(assert (let ((.def_0 (not A0))) (let ((.def_1 (not A19))) (let ((.def_2 (or .def_1 .def_0))) (let ((.def_3 (not A18))) (let ((.def_4 (not A14))) (let ((.def_5 (or .def_4 .def_3))) (let ((.def_6 (or .def_5 .def_2))) (let ((.def_7 (not .def_6))) (let ((.def_8 (or A21 A24))) (let ((.def_9 (or A16 A6))) (let ((.def_10 (or .def_9 .def_8))) (let ((.def_11 (and .def_10 .def_7))) (let ((.def_12 (not .def_11))) (let ((.def_13 (= A13 A2))) (let ((.def_14 (not .def_13))) (let ((.def_15 (not A11))) (let ((.def_16 (not A7))) (let ((.def_17 (= .def_16 .def_15))) (let ((.def_18 (not .def_17))) (let ((.def_19 (or .def_18 .def_14))) (let ((.def_20 (not .def_19))) (let ((.def_21 (not A12))) (let ((.def_22 (and .def_21 .def_1))) (let ((.def_23 (not .def_22))) (let ((.def_24 (not A23))) (let ((.def_25 (or .def_24 A23))) (let ((.def_26 (or .def_25 .def_23))) (let ((.def_27 (not .def_26))) (let ((.def_28 (or .def_27 .def_20))) (let ((.def_29 (not .def_28))) (let ((.def_30 (and .def_29 .def_12))) (let ((.def_31 (not A21))) (let ((.def_32 (and A18 .def_31))) (let ((.def_33 (not .def_32))) (let ((.def_34 (and A18 A7))) (let ((.def_35 (and .def_34 .def_33))) (let ((.def_36 (or .def_21 A1))) (let ((.def_37 (or A10 A4))) (let ((.def_38 (not .def_37))) (let ((.def_39 (or .def_38 .def_36))) (let ((.def_40 (and .def_39 .def_35))) (let ((.def_41 (and A17 A23))) (let ((.def_42 (not .def_41))) (let ((.def_43 (not A4))) (let ((.def_44 (or .def_15 .def_43))) (let ((.def_45 (not .def_44))) (let ((.def_46 (and .def_45 .def_42))) (let ((.def_47 (or A13 A10))) (let ((.def_48 (not .def_47))) (let ((.def_49 (not A9))) (let ((.def_50 (or A4 .def_49))) (let ((.def_51 (not .def_50))) (let ((.def_52 (or .def_51 .def_48))) (let ((.def_53 (not .def_52))) (let ((.def_54 (or .def_53 .def_46))) (let ((.def_55 (or .def_54 .def_40))) (let ((.def_56 (and .def_55 .def_30))) (let ((.def_57 (or A21 A19))) (let ((.def_58 (not .def_57))) (let ((.def_59 (or A12 A12))) (let ((.def_60 (or .def_59 .def_58))) (let ((.def_61 (not .def_60))) (let ((.def_62 (not A10))) (let ((.def_63 (or .def_62 A13))) (let ((.def_64 (not .def_63))) (let ((.def_65 (or A7 A7))) (let ((.def_66 (and .def_65 .def_64))) (let ((.def_67 (or .def_66 .def_61))) (let ((.def_68 (not .def_67))) (let ((.def_69 (and A24 .def_3))) (let ((.def_70 (not A1))) (let ((.def_71 (and A21 .def_70))) (let ((.def_72 (not .def_71))) (let ((.def_73 (or .def_72 .def_69))) (let ((.def_74 (not A22))) (let ((.def_75 (or A5 .def_74))) (let ((.def_76 (not .def_75))) (let ((.def_77 (and A1 .def_0))) (let ((.def_78 (= .def_77 .def_76))) (let ((.def_79 (and .def_78 .def_73))) (let ((.def_80 (and .def_79 .def_68))) (let ((.def_81 (not .def_80))) (let ((.def_82 (or .def_4 A2))) (let ((.def_83 (not .def_82))) (let ((.def_84 (or .def_16 .def_62))) (let ((.def_85 (and .def_84 .def_83))) (let ((.def_86 (not .def_85))) (let ((.def_87 (and A13 .def_74))) (let ((.def_88 (not .def_87))) (let ((.def_89 (not A3))) (let ((.def_90 (or .def_89 A9))) (let ((.def_91 (not .def_90))) (let ((.def_92 (and .def_91 .def_88))) (let ((.def_93 (or .def_92 .def_86))) (let ((.def_94 (not .def_93))) (let ((.def_95 (and A20 .def_24))) (let ((.def_96 (not A5))) (let ((.def_97 (or .def_96 A7))) (let ((.def_98 (or .def_97 .def_95))) (let ((.def_99 (not A6))) (let ((.def_100 (and A23 .def_99))) (let ((.def_101 (or .def_31 A8))) (let ((.def_102 (or .def_101 .def_100))) (let ((.def_103 (and .def_102 .def_98))) (let ((.def_104 (= .def_103 .def_94))) (let ((.def_105 (and .def_104 .def_81))) (let ((.def_106 (or .def_105 .def_56))) (let ((.def_107 (not .def_106))) .def_107)))))))))))))))))))))))))))))))))))))))))))))))))))))))))))))))))))))))))))))))))))))))))))))))))))))))))))))
(check-sat)
